ilp_joint/output/nitrogen cycle_ilp.lp
Maximize
  6.2586168599586029e-04 Z_541_0_0 + 8.1583045426088013e-04 Z_541_0_1
   + 0.7073614438719674 Z_541_0_2 + 0.000417694 Z_541_0_3
   + 0.1907791700256742 Z_541_0_4 + 1.5558587607571948e-04 Z_745_0_0
   + 0.00298384703883406 Z_745_0_1 + 0.7385853982154004 Z_745_0_2
   + 2.3323722685566749e-04 Z_745_0_3 + 0.1580419316428343 Z_745_0_4
   + 5.0777259537384829e-04 Z_74_1_0 + 6.1726046961741127e-04 Z_74_1_1
   + 0.6021724322947284 Z_74_1_2 + 0.000533281 Z_74_1_3
   + 0.2961692536142018 Z_74_1_4 + 0.058402035992604 Z_74_2_0
   + 0.0873491881812211 Z_74_2_1 + 0.00312310934631408 Z_74_2_2
   + 0.4874238148635379 Z_74_2_3 + 0.2637018516163229 Z_74_2_4
   + 5.0777259537384829e-04 Z_74_0_0 + 6.1726046961741127e-04 Z_74_0_1
   + 0.6021724322947284 Z_74_0_2 + 0.000533281 Z_74_0_3
   + 0.2961692536142018 Z_74_0_4 + 0.000816985 Z_294_0_0
   + 6.7702943119507628e-04 Z_294_0_1 + 0.5707457018042806 Z_294_0_2
   + 0.00140703923254188 Z_294_0_3 + 0.3263532445732413 Z_294_0_4
Subject To
 constraint1_5410: Z_541_0_0 + Z_541_0_1 + Z_541_0_2 + Z_541_0_3
   + Z_541_0_4 <= 1
 constraint1_7450: Z_745_0_0 + Z_745_0_1 + Z_745_0_2 + Z_745_0_3
   + Z_745_0_4 <= 1
 constraint1_741: Z_74_1_0 + Z_74_1_1 + Z_74_1_2 + Z_74_1_3 + Z_74_1_4
   <= 1
 constraint1_742: Z_74_2_0 + Z_74_2_1 + Z_74_2_2 + Z_74_2_3 + Z_74_2_4
   <= 1
 constraint1_740: Z_74_0_0 + Z_74_0_1 + Z_74_0_2 + Z_74_0_3 + Z_74_0_4
   <= 1
 constraint1_2940: Z_294_0_0 + Z_294_0_1 + Z_294_0_2 + Z_294_0_3
   + Z_294_0_4 <= 1
 constraint2_5410: Z_541_0_0 <= 1
 constraint2_5411: Z_541_0_1 <= 1
 constraint2_5412: Z_541_0_2 <= 1
 constraint2_5413: Z_541_0_3 <= 1
 constraint2_7450: Z_745_0_0 <= 1
 constraint2_7451: Z_745_0_1 <= 1
 constraint2_7452: Z_745_0_2 <= 1
 constraint2_7453: Z_745_0_3 <= 1
 constraint2_740: Z_74_1_0 + Z_74_2_0 + Z_74_0_0 <= 1
 constraint2_741: Z_74_1_1 + Z_74_2_1 + Z_74_0_1 <= 1
 constraint2_742: Z_74_1_2 + Z_74_2_2 + Z_74_0_2 <= 1
 constraint2_743: Z_74_1_3 + Z_74_2_3 + Z_74_0_3 <= 1
 constraint2_2940: Z_294_0_0 <= 1
 constraint2_2941: Z_294_0_1 <= 1
 constraint2_2942: Z_294_0_2 <= 1
 constraint2_2943: Z_294_0_3 <= 1
Bounds
Binaries
 Z_541_0_0 Z_541_0_1 Z_541_0_2 Z_541_0_3 Z_541_0_4 Z_745_0_0 Z_745_0_1
 Z_745_0_2 Z_745_0_3 Z_745_0_4 Z_74_1_0 Z_74_1_1 Z_74_1_2 Z_74_1_3 Z_74_1_4
 Z_74_2_0 Z_74_2_1 Z_74_2_2 Z_74_2_3 Z_74_2_4 Z_74_0_0 Z_74_0_1 Z_74_0_2
 Z_74_0_3 Z_74_0_4 Z_294_0_0 Z_294_0_1 Z_294_0_2 Z_294_0_3 Z_294_0_4
End
