ilp_joint/output/nitrogen cycle_ilp.sol
# Solution for model nitrogen cycle_srl_ilp
# Objective value = 1.2048336145424550e+00
Z_302_0_0 0
Z_302_0_1 0
Z_302_0_2 1
Z_302_0_3 0
Z_302_0_4 0
Z_554_0_0 0
Z_554_0_1 0
Z_554_0_2 0
Z_554_0_3 0
Z_554_0_4 1
